NAME : LKH/problem_files/LocalTSPInstance3.510287.tour
COMMENT : Length = 510287
COMMENT : Found by LKH [Keld Helsgaun] Fri Jul  2 10:45:50 2021
TYPE : TOUR
DIMENSION : 155
TOUR_SECTION
1
90
89
111
115
113
112
114
94
92
91
93
71
72
70
69
50
52
51
33
35
18
3
2
4
5
17
19
20
34
36
37
55
56
53
54
74
73
75
76
97
98
95
96
117
116
118
119
133
132
134
121
120
100
99
78
77
58
57
39
38
22
21
7
6
8
9
23
24
40
41
59
60
79
80
101
102
122
123
135
136
140
138
139
137
142
141
144
143
131
130
110
109
88
87
68
67
49
48
32
31
16
14
15
29
30
46
47
65
66
85
86
107
108
128
129
124
125
127
126
106
104
105
103
84
82
83
81
64
62
63
61
45
43
44
42
28
26
27
25
13
11
10
12
146
145
154
150
151
147
148
149
152
153
155
-1
EOF
